Route #1: 30 48 47 21 70 60 20 13 52 54 19 7 
Route #2: 4 49 24 44 9 32 3 
Route #3: 2 6 68 51 16 72 39 58 10 38 53 34 
Route #4: 64 1 63 23 56 50 17 67 46 8 
Route #5: 33 41 42 43 62 73 22 61 69 71 37 29 
Route #6: 26 31 65 11 66 25 55 18 40 12 
Route #7: 75 35 59 14 15 57 74 28 36 5 45 27 
cost 1094.81
execution_time 19.205
